c graph converted from Delauney Triangulation format
c weights on edges removed (lost)
x low 0.00
p edge 400 1183
n 0 1.00
n 200 1.00
n 3 1.00
n 8 1.00
n 202 1.00
n 274 1.00
n 1 1.00
n 121 1.00
n 138 1.00
n 384 1.00
n 147 1.00
n 59 1.00
n 208 1.00
n 2 1.00
n 392 1.00
n 92 1.00
n 360 1.00
n 206 1.00
n 386 1.00
n 313 1.00
n 115 1.00
n 289 1.00
n 168 1.00
n 4 1.00
n 280 1.00
n 279 1.00
n 254 1.00
n 211 1.00
n 329 1.00
n 5 1.00
n 135 1.00
n 150 1.00
n 57 1.00
n 48 1.00
n 159 1.00
n 322 1.00
n 6 1.00
n 63 1.00
n 340 1.00
n 46 1.00
n 71 1.00
n 7 1.00
n 334 1.00
n 90 1.00
n 318 1.00
n 174 1.00
n 144 1.00
n 43 1.00
n 127 1.00
n 303 1.00
n 114 1.00
n 55 1.00
n 136 1.00
n 9 1.00
n 241 1.00
n 124 1.00
n 352 1.00
n 188 1.00
n 145 1.00
n 10 1.00
n 362 1.00
n 99 1.00
n 271 1.00
n 131 1.00
n 244 1.00
n 11 1.00
n 125 1.00
n 375 1.00
n 42 1.00
n 26 1.00
n 320 1.00
n 12 1.00
n 316 1.00
n 172 1.00
n 267 1.00
n 305 1.00
n 18 1.00
n 383 1.00
n 13 1.00
n 376 1.00
n 51 1.00
n 140 1.00
n 265 1.00
n 14 1.00
n 20 1.00
n 300 1.00
n 221 1.00
n 29 1.00
n 15 1.00
n 16 1.00
n 66 1.00
n 185 1.00
n 17 1.00
n 232 1.00
n 304 1.00
n 393 1.00
n 364 1.00
n 23 1.00
n 239 1.00
n 19 1.00
n 273 1.00
n 367 1.00
n 165 1.00
n 214 1.00
n 226 1.00
n 105 1.00
n 56 1.00
n 390 1.00
n 117 1.00
n 21 1.00
n 146 1.00
n 65 1.00
n 256 1.00
n 366 1.00
n 22 1.00
n 100 1.00
n 349 1.00
n 141 1.00
n 123 1.00
n 31 1.00
n 190 1.00
n 58 1.00
n 88 1.00
n 97 1.00
n 288 1.00
n 24 1.00
n 28 1.00
n 162 1.00
n 173 1.00
n 199 1.00
n 330 1.00
n 25 1.00
n 128 1.00
n 116 1.00
n 166 1.00
n 327 1.00
n 119 1.00
n 246 1.00
n 217 1.00
n 27 1.00
n 175 1.00
n 377 1.00
n 268 1.00
n 222 1.00
n 368 1.00
n 196 1.00
n 315 1.00
n 68 1.00
n 75 1.00
n 396 1.00
n 30 1.00
n 220 1.00
n 261 1.00
n 371 1.00
n 361 1.00
n 223 1.00
n 32 1.00
n 60 1.00
n 323 1.00
n 193 1.00
n 149 1.00
n 170 1.00
n 104 1.00
n 33 1.00
n 160 1.00
n 285 1.00
n 255 1.00
n 346 1.00
n 213 1.00
n 294 1.00
n 34 1.00
n 122 1.00
n 205 1.00
n 270 1.00
n 47 1.00
n 35 1.00
n 278 1.00
n 183 1.00
n 118 1.00
n 36 1.00
n 296 1.00
n 74 1.00
n 81 1.00
n 325 1.00
n 37 1.00
n 180 1.00
n 78 1.00
n 374 1.00
n 238 1.00
n 248 1.00
n 38 1.00
n 215 1.00
n 335 1.00
n 39 1.00
n 108 1.00
n 167 1.00
n 54 1.00
n 245 1.00
n 40 1.00
n 64 1.00
n 342 1.00
n 380 1.00
n 70 1.00
n 339 1.00
n 41 1.00
n 297 1.00
n 287 1.00
n 106 1.00
n 62 1.00
n 282 1.00
n 44 1.00
n 45 1.00
n 197 1.00
n 324 1.00
n 143 1.00
n 137 1.00
n 301 1.00
n 85 1.00
n 182 1.00
n 67 1.00
n 252 1.00
n 229 1.00
n 341 1.00
n 345 1.00
n 49 1.00
n 151 1.00
n 295 1.00
n 82 1.00
n 50 1.00
n 101 1.00
n 251 1.00
n 243 1.00
n 382 1.00
n 231 1.00
n 164 1.00
n 237 1.00
n 387 1.00
n 52 1.00
n 307 1.00
n 94 1.00
n 189 1.00
n 397 1.00
n 53 1.00
n 399 1.00
n 76 1.00
n 198 1.00
n 394 1.00
n 379 1.00
n 192 1.00
n 272 1.00
n 178 1.00
n 336 1.00
n 102 1.00
n 292 1.00
n 328 1.00
n 344 1.00
n 93 1.00
n 234 1.00
n 332 1.00
n 240 1.00
n 218 1.00
n 96 1.00
n 302 1.00
n 61 1.00
n 326 1.00
n 253 1.00
n 195 1.00
n 365 1.00
n 83 1.00
n 113 1.00
n 370 1.00
n 154 1.00
n 204 1.00
n 281 1.00
n 319 1.00
n 395 1.00
n 69 1.00
n 207 1.00
n 363 1.00
n 80 1.00
n 152 1.00
n 126 1.00
n 153 1.00
n 72 1.00
n 225 1.00
n 381 1.00
n 73 1.00
n 398 1.00
n 139 1.00
n 133 1.00
n 290 1.00
n 219 1.00
n 269 1.00
n 283 1.00
n 277 1.00
n 347 1.00
n 77 1.00
n 276 1.00
n 321 1.00
n 291 1.00
n 312 1.00
n 348 1.00
n 89 1.00
n 120 1.00
n 79 1.00
n 227 1.00
n 259 1.00
n 176 1.00
n 179 1.00
n 148 1.00
n 84 1.00
n 191 1.00
n 158 1.00
n 358 1.00
n 155 1.00
n 86 1.00
n 242 1.00
n 186 1.00
n 311 1.00
n 87 1.00
n 184 1.00
n 233 1.00
n 257 1.00
n 91 1.00
n 357 1.00
n 107 1.00
n 156 1.00
n 359 1.00
n 109 1.00
n 134 1.00
n 372 1.00
n 95 1.00
n 337 1.00
n 98 1.00
n 369 1.00
n 142 1.00
n 103 1.00
n 385 1.00
n 275 1.00
n 260 1.00
n 353 1.00
n 298 1.00
n 264 1.00
n 111 1.00
n 110 1.00
n 309 1.00
n 247 1.00
n 354 1.00
n 249 1.00
n 263 1.00
n 306 1.00
n 343 1.00
n 351 1.00
n 112 1.00
n 250 1.00
n 129 1.00
n 391 1.00
n 314 1.00
n 389 1.00
n 331 1.00
n 163 1.00
n 212 1.00
n 378 1.00
n 236 1.00
n 293 1.00
n 130 1.00
n 169 1.00
n 310 1.00
n 157 1.00
n 132 1.00
n 187 1.00
n 171 1.00
n 299 1.00
n 216 1.00
n 333 1.00
n 181 1.00
n 235 1.00
n 210 1.00
n 356 1.00
n 201 1.00
n 203 1.00
n 338 1.00
n 161 1.00
n 258 1.00
n 286 1.00
n 224 1.00
n 355 1.00
n 308 1.00
n 317 1.00
n 230 1.00
n 266 1.00
n 388 1.00
n 228 1.00
n 177 1.00
n 209 1.00
n 194 1.00
n 284 1.00
n 262 1.00
n 350 1.00
n 373 1.00
e 0 200
e 0 3
e 0 8
e 0 202
e 0 274
e 1 121
e 1 138
e 1 384
e 1 147
e 1 59
e 1 208
e 2 392
e 2 92
e 2 360
e 2 206
e 2 386
e 2 313
e 2 115
e 3 289
e 3 168
e 3 200
e 3 202
e 4 280
e 4 279
e 4 254
e 4 211
e 4 329
e 5 135
e 5 150
e 5 57
e 5 48
e 5 159
e 5 322
e 6 63
e 6 340
e 6 46
e 6 71
e 7 334
e 7 90
e 7 318
e 7 174
e 7 144
e 7 43
e 7 127
e 8 200
e 8 303
e 8 114
e 8 274
e 8 55
e 8 136
e 9 241
e 9 124
e 9 352
e 9 188
e 9 145
e 10 362
e 10 99
e 10 271
e 10 131
e 10 244
e 11 125
e 11 375
e 11 42
e 11 26
e 11 320
e 12 316
e 12 172
e 12 267
e 12 305
e 12 18
e 12 383
e 13 376
e 13 51
e 13 140
e 13 352
e 13 254
e 13 265
e 14 20
e 14 300
e 14 221
e 14 136
e 14 29
e 15 360
e 15 392
e 15 145
e 15 206
e 15 115
e 16 267
e 16 66
e 16 185
e 16 316
e 17 232
e 17 304
e 17 393
e 17 364
e 18 305
e 18 23
e 18 383
e 18 239
e 19 273
e 19 367
e 19 165
e 19 214
e 19 226
e 19 105
e 19 56
e 20 300
e 20 390
e 20 29
e 20 117
e 21 146
e 21 65
e 21 256
e 21 366
e 22 100
e 22 349
e 22 141
e 22 123
e 22 31
e 22 190
e 22 58
e 23 305
e 23 88
e 23 239
e 23 97
e 23 288
e 24 28
e 24 162
e 24 173
e 24 199
e 24 330
e 25 128
e 25 116
e 25 166
e 25 327
e 25 119
e 25 246
e 25 300
e 26 217
e 26 125
e 26 320
e 27 175
e 27 377
e 27 268
e 27 222
e 28 162
e 28 368
e 28 196
e 28 173
e 29 136
e 29 117
e 29 315
e 29 68
e 29 75
e 29 396
e 30 220
e 30 261
e 30 124
e 30 241
e 30 371
e 31 141
e 31 361
e 31 362
e 31 223
e 31 58
e 32 60
e 32 323
e 32 193
e 32 149
e 32 170
e 32 104
e 33 160
e 33 285
e 33 255
e 33 346
e 33 213
e 33 294
e 34 122
e 34 205
e 34 270
e 34 47
e 34 190
e 35 278
e 35 183
e 35 118
e 35 270
e 35 190
e 36 296
e 36 74
e 36 81
e 36 325
e 36 175
e 36 377
e 37 180
e 37 43
e 37 127
e 37 78
e 37 374
e 37 238
e 37 248
e 38 255
e 38 294
e 38 215
e 38 335
e 38 119
e 38 303
e 38 221
e 38 246
e 39 108
e 39 167
e 39 54
e 39 238
e 39 245
e 40 64
e 40 342
e 40 380
e 40 70
e 40 339
e 41 166
e 41 297
e 41 327
e 41 390
e 41 287
e 41 106
e 42 375
e 42 320
e 42 62
e 42 220
e 42 282
e 42 371
e 43 144
e 43 127
e 43 180
e 44 255
e 44 160
e 44 248
e 44 168
e 45 197
e 45 324
e 45 143
e 45 137
e 45 301
e 45 85
e 45 182
e 46 340
e 46 67
e 46 252
e 46 122
e 46 71
e 46 270
e 47 252
e 47 123
e 47 205
e 47 190
e 48 57
e 48 322
e 48 229
e 48 341
e 48 345
e 49 151
e 49 393
e 49 295
e 49 82
e 49 364
e 50 101
e 50 251
e 50 243
e 50 382
e 50 231
e 50 164
e 50 237
e 51 376
e 51 387
e 51 261
e 51 124
e 51 352
e 52 307
e 52 368
e 52 94
e 52 189
e 52 397
e 53 288
e 53 399
e 53 76
e 53 198
e 53 394
e 53 88
e 54 379
e 54 192
e 54 127
e 54 238
e 54 167
e 55 274
e 55 272
e 55 136
e 56 226
e 56 105
e 56 178
e 56 336
e 56 102
e 57 135
e 57 345
e 58 223
e 58 190
e 58 244
e 59 292
e 59 147
e 59 328
e 59 208
e 59 344
e 59 99
e 60 93
e 60 234
e 60 332
e 60 240
e 60 323
e 60 218
e 60 193
e 60 96
e 60 302
e 60 379
e 61 292
e 61 326
e 61 328
e 61 141
e 61 253
e 61 361
e 62 217
e 62 320
e 62 296
e 62 175
e 62 220
e 63 315
e 63 195
e 63 159
e 63 340
e 63 71
e 64 365
e 64 83
e 64 113
e 64 380
e 64 342
e 65 370
e 65 146
e 65 214
e 65 256
e 66 154
e 66 204
e 66 281
e 66 267
e 66 185
e 67 75
e 67 319
e 67 395
e 67 340
e 67 252
e 68 315
e 68 75
e 68 340
e 69 207
e 69 363
e 69 143
e 69 332
e 69 80
e 69 93
e 70 342
e 70 339
e 70 152
e 70 126
e 71 159
e 71 322
e 71 153
e 71 270
e 71 183
e 72 280
e 72 211
e 72 225
e 72 381
e 72 386
e 73 398
e 73 139
e 73 133
e 73 218
e 73 96
e 74 290
e 74 219
e 74 269
e 74 296
e 74 81
e 75 396
e 75 340
e 75 319
e 76 283
e 76 277
e 76 347
e 76 399
e 76 198
e 77 276
e 77 321
e 77 207
e 77 291
e 77 197
e 77 324
e 78 312
e 78 348
e 78 180
e 78 231
e 78 89
e 78 120
e 78 374
e 79 376
e 79 336
e 79 227
e 79 259
e 80 143
e 80 93
e 80 240
e 80 176
e 81 269
e 81 367
e 81 273
e 81 325
e 82 295
e 82 179
e 82 318
e 82 364
e 82 148
e 82 90
e 82 398
e 83 189
e 83 397
e 83 365
e 83 380
e 84 191
e 84 307
e 84 158
e 84 358
e 84 155
e 85 301
e 85 371
e 85 182
e 86 242
e 86 186
e 86 311
e 86 277
e 86 347
e 87 184
e 87 251
e 87 243
e 88 394
e 88 233
e 88 204
e 88 267
e 88 305
e 88 288
e 89 231
e 89 120
e 89 164
e 89 257
e 90 148
e 90 318
e 90 334
e 91 366
e 91 357
e 91 107
e 91 274
e 91 156
e 91 359
e 91 384
e 91 109
e 92 329
e 92 134
e 92 372
e 92 392
e 92 386
e 93 332
e 93 240
e 93 234
e 94 368
e 94 196
e 94 397
e 95 226
e 95 178
e 95 256
e 95 107
e 95 102
e 96 398
e 96 218
e 96 337
e 96 192
e 96 379
e 97 239
e 97 287
e 97 135
e 97 288
e 97 345
e 97 162
e 98 369
e 98 142
e 98 103
e 98 290
e 98 385
e 98 269
e 99 344
e 99 208
e 99 362
e 99 271
e 100 395
e 100 275
e 100 349
e 100 123
e 101 260
e 101 382
e 101 251
e 102 178
e 102 107
e 102 353
e 102 298
e 102 336
e 102 225
e 102 264
e 103 142
e 103 111
e 103 385
e 103 110
e 104 193
e 104 170
e 104 302
e 104 309
e 104 247
e 104 354
e 105 273
e 105 325
e 105 377
e 105 268
e 105 249
e 105 336
e 106 390
e 106 195
e 106 159
e 106 287
e 106 150
e 107 256
e 107 366
e 107 353
e 107 359
e 108 167
e 108 263
e 108 245
e 108 111
e 109 156
e 109 384
e 109 306
e 109 343
e 109 147
e 109 292
e 110 385
e 110 111
e 110 370
e 110 269
e 110 165
e 110 367
e 111 263
e 111 245
e 111 142
e 111 351
e 111 370
e 112 250
e 112 129
e 112 349
e 112 326
e 112 141
e 113 365
e 113 391
e 113 342
e 113 314
e 114 221
e 114 303
e 114 136
e 115 313
e 115 389
e 115 331
e 115 206
e 115 131
e 115 244
e 115 190
e 116 185
e 116 281
e 116 215
e 116 335
e 116 163
e 116 166
e 116 128
e 117 390
e 117 195
e 117 315
e 118 322
e 118 278
e 118 212
e 118 378
e 118 190
e 119 335
e 119 128
e 119 246
e 120 374
e 120 257
e 120 236
e 120 248
e 121 138
e 121 264
e 121 208
e 122 252
e 122 205
e 122 270
e 123 252
e 123 395
e 123 190
e 124 261
e 124 241
e 124 352
e 125 293
e 125 130
e 125 170
e 125 375
e 125 169
e 125 217
e 126 152
e 126 342
e 126 184
e 126 260
e 126 251
e 127 334
e 127 192
e 127 238
e 128 335
e 129 310
e 129 306
e 129 157
e 129 326
e 129 250
e 130 293
e 130 282
e 130 375
e 131 271
e 131 331
e 131 244
e 132 238
e 132 248
e 132 245
e 132 351
e 132 168
e 133 187
e 133 171
e 133 139
e 133 363
e 133 332
e 133 218
e 134 254
e 134 265
e 134 329
e 134 372
e 135 287
e 135 150
e 135 345
e 136 221
e 136 272
e 136 299
e 136 396
e 137 176
e 137 143
e 137 149
e 137 182
e 138 298
e 138 384
e 138 264
e 139 216
e 139 187
e 139 364
e 139 398
e 140 376
e 140 259
e 140 279
e 140 254
e 141 326
e 141 349
e 141 361
e 142 309
e 142 333
e 142 369
e 142 263
e 143 197
e 143 207
e 143 176
e 144 174
e 144 348
e 144 180
e 145 188
e 145 241
e 145 372
e 145 392
e 145 371
e 146 351
e 146 289
e 146 370
e 146 366
e 147 384
e 147 292
e 148 398
e 148 337
e 148 334
e 148 192
e 149 176
e 149 323
e 149 182
e 149 293
e 149 170
e 150 287
e 150 159
e 151 181
e 151 307
e 151 191
e 151 304
e 151 179
e 151 295
e 151 393
e 152 339
e 152 184
e 152 242
e 152 277
e 153 322
e 153 278
e 153 183
e 154 235
e 154 210
e 154 356
e 154 201
e 154 204
e 154 281
e 155 358
e 155 191
e 155 365
e 155 203
e 155 391
e 156 338
e 156 274
e 156 306
e 157 343
e 157 306
e 157 326
e 158 307
e 158 189
e 158 358
e 158 365
e 159 195
e 159 322
e 160 248
e 160 236
e 160 285
e 160 255
e 161 258
e 161 286
e 161 224
e 161 312
e 161 260
e 161 382
e 161 231
e 162 307
e 162 368
e 162 330
e 162 355
e 162 288
e 163 316
e 163 185
e 163 172
e 163 166
e 164 231
e 164 237
e 164 257
e 164 308
e 165 370
e 165 367
e 165 214
e 166 327
e 166 172
e 166 297
e 167 379
e 167 263
e 168 248
e 168 255
e 168 351
e 168 289
e 168 200
e 168 303
e 169 170
e 169 317
e 169 217
e 169 230
e 169 219
e 169 296
e 170 293
e 170 247
e 170 317
e 171 187
e 171 266
e 171 363
e 172 316
e 172 383
e 172 297
e 173 196
e 173 199
e 173 397
e 173 380
e 173 388
e 174 228
e 174 318
e 174 348
e 175 296
e 175 377
e 175 220
e 175 222
e 176 240
e 176 323
e 177 257
e 177 308
e 177 346
e 177 213
e 178 226
e 179 191
e 179 295
e 179 203
e 179 209
e 179 318
e 180 348
e 181 276
e 181 307
e 181 304
e 181 232
e 181 187
e 181 216
e 182 371
e 182 282
e 182 293
e 183 270
e 183 278
e 184 251
e 184 277
e 184 243
e 184 283
e 185 281
e 185 316
e 186 242
e 186 355
e 186 311
e 187 216
e 187 276
e 187 266
e 188 352
e 188 265
e 188 372
e 189 307
e 189 397
e 189 365
e 190 270
e 190 244
e 190 378
e 191 307
e 191 203
e 192 337
e 192 334
e 192 379
e 193 302
e 194 381
e 194 386
e 194 271
e 194 313
e 195 390
e 195 315
e 196 368
e 196 397
e 197 207
e 197 324
e 198 283
e 198 394
e 198 210
e 198 233
e 199 330
e 199 388
e 200 303
e 201 308
e 201 235
e 201 213
e 201 284
e 201 281
e 202 289
e 202 366
e 202 357
e 202 274
e 203 209
e 203 391
e 204 233
e 204 356
e 204 267
e 205 252
e 206 360
e 207 276
e 207 363
e 208 264
e 208 381
e 208 271
e 209 318
e 209 391
e 209 258
e 210 262
e 210 283
e 210 235
e 210 233
e 210 356
e 211 280
e 211 329
e 211 386
e 212 229
e 212 341
e 212 322
e 212 378
e 213 308
e 213 346
e 213 284
e 213 294
e 214 370
e 214 226
e 214 256
e 215 281
e 215 284
e 215 294
e 215 335
e 216 232
e 216 364
e 217 320
e 217 296
e 218 332
e 219 290
e 219 230
e 219 296
e 220 222
e 220 387
e 220 261
e 220 371
e 221 303
e 221 246
e 221 300
e 222 268
e 222 249
e 222 387
e 223 362
e 223 244
e 224 314
e 224 286
e 224 260
e 225 336
e 225 227
e 225 280
e 225 264
e 225 381
e 226 256
e 227 336
e 227 259
e 227 279
e 227 280
e 228 258
e 228 318
e 228 348
e 229 341
e 229 345
e 229 378
e 230 290
e 230 317
e 231 382
e 231 312
e 232 304
e 232 364
e 233 394
e 233 356
e 234 332
e 235 262
e 235 308
e 236 257
e 236 248
e 236 285
e 237 243
e 237 262
e 237 308
e 238 248
e 238 245
e 239 383
e 239 297
e 239 287
e 240 323
e 241 371
e 242 339
e 242 388
e 242 355
e 242 277
e 243 251
e 243 262
e 243 283
e 244 362
e 245 351
e 246 300
e 247 354
e 247 317
e 247 369
e 248 374
e 249 268
e 249 336
e 249 387
e 249 376
e 250 275
e 250 310
e 250 349
e 251 260
e 252 395
e 253 344
e 253 328
e 253 361
e 253 362
e 254 279
e 254 265
e 254 329
e 255 294
e 255 303
e 256 366
e 257 308
e 257 346
e 257 285
e 258 391
e 258 318
e 258 286
e 258 348
e 258 312
e 259 376
e 259 279
e 260 314
e 260 342
e 260 382
e 261 387
e 262 283
e 262 308
e 263 379
e 263 302
e 263 333
e 264 298
e 264 381
e 265 352
e 265 372
e 266 276
e 266 363
e 267 316
e 267 305
e 268 377
e 269 385
e 269 290
e 269 367
e 271 381
e 271 313
e 271 389
e 271 331
e 272 274
e 272 338
e 272 299
e 273 367
e 273 325
e 274 357
e 274 338
e 275 396
e 275 299
e 275 310
e 275 319
e 275 349
e 275 395
e 276 307
e 276 321
e 276 350
e 276 363
e 277 347
e 277 283
e 278 322
e 279 280
e 281 284
e 282 371
e 282 293
e 282 375
e 284 294
e 285 346
e 286 314
e 286 391
e 287 297
e 288 399
e 288 347
e 288 311
e 288 355
e 289 351
e 289 366
e 290 317
e 290 369
e 291 321
e 291 373
e 291 324
e 291 301
e 291 371
e 292 343
e 292 326
e 292 328
e 297 383
e 298 353
e 298 359
e 298 384
e 299 338
e 299 306
e 299 396
e 299 310
e 300 327
e 300 390
e 301 324
e 301 371
e 302 379
e 302 309
e 302 333
e 304 393
e 306 338
e 306 343
e 306 310
e 307 368
e 309 333
e 309 354
e 309 369
e 311 347
e 311 355
e 312 348
e 313 386
e 313 389
e 314 391
e 314 342
e 315 340
e 317 369
e 319 396
e 319 395
e 321 350
e 321 373
e 322 341
e 325 377
e 326 343
e 327 390
e 328 344
e 329 386
e 330 388
e 330 355
e 331 389
e 332 363
e 336 376
e 337 398
e 339 380
e 339 388
e 344 362
e 345 378
e 347 399
e 350 373
e 351 370
e 353 359
e 354 369
e 355 388
e 357 366
e 358 365
e 359 384
e 360 392
e 361 362
e 364 393
e 364 398
e 365 391
e 372 392
e 376 387
e 380 397
e 380 388
e 381 386
